MSW04
Position Depot: Center
Horizon for Depot: Small
Position of customers: Mixt
Distribution of the demand: Large
Width of time windows: Wide
Distribution of the service: Small

VEHICLE 
NUMBER 	 CAPACITY 
 5 	 	 482 
 
CUSTOMER
CUST NO. 	 XCOORD.  	 YCOORD. 	 DEMAND 	 READY TIME 	 DUE DATE 	 SERVICE TIME 
 0 	 	 500 	 	 500 	 	 0 	 	 0 	 	 1722 	 	 0 
  1 	 	 7 	 	 768 	 	 21 	 	 1021 	 	 1402 	 	 64 
  2 	 	 283 	 	 79 	 	 46 	 	 96 	 	 520 	 	 97 
  3 	 	 966 	 	 272 	 	 25 	 	 200 	 	 570 	 	 56 
  4 	 	 977 	 	 768 	 	 63 	 	 548 	 	 978 	 	 100 
  5 	 	 967 	 	 762 	 	 87 	 	 710 	 	 1084 	 	 95 
  6 	 	 977 	 	 273 	 	 99 	 	 1317 	 	 1722 	 	 87 
  7 	 	 975 	 	 277 	 	 90 	 	 297 	 	 714 	 	 61 
  8 	 	 258 	 	 78 	 	 67 	 	 631 	 	 1055 	 	 73 
  9 	 	 226 	 	 96 	 	 22 	 	 1340 	 	 1616 	 	 57 
  10 	 	 956 	 	 828 	 	 88 	 	 1224 	 	 1722 	 	 89 
  11 	 	 925 	 	 263 	 	 59 	 	 453 	 	 858 	 	 53 
  12 	 	 825 	 	 243 	 	 5 	 	 438 	 	 886 	 	 73 
  13 	 	 112 	 	 787 	 	 56 	 	 1253 	 	 1722 	 	 61 
  14 	 	 137 	 	 15 	 	 68 	 	 1083 	 	 1355 	 	 71 
  15 	 	 965 	 	 735 	 	 51 	 	 953 	 	 1409 	 	 100 
  16 	 	 12 	 	 777 	 	 18 	 	 153 	 	 617 	 	 74 
  17 	 	 312 	 	 111 	 	 21 	 	 1344 	 	 1648 	 	 62 
  18 	 	 409 	 	 115 	 	 79 	 	 1172 	 	 1637 	 	 97 
  19 	 	 879 	 	 688 	 	 66 	 	 178 	 	 465 	 	 81 
  20 	 	 926 	 	 815 	 	 46 	 	 857 	 	 1120 	 	 53 
  21 	 	 989 	 	 719 	 	 78 	 	 656 	 	 982 	 	 72 
  22 	 	 9 	 	 758 	 	 44 	 	 1228 	 	 1722 	 	 78 
  23 	 	 949 	 	 752 	 	 57 	 	 301 	 	 638 	 	 64 
  24 	 	 957 	 	 298 	 	 28 	 	 1341 	 	 1646 	 	 100 
  25 	 	 343 	 	 181 	 	 59 	 	 110 	 	 391 	 	 80 
  26 	 	 569 	 	 653 	 	 52 	 	 590 	 	 882 	 	 94 
  27 	 	 924 	 	 641 	 	 63 	 	 884 	 	 1219 	 	 61 
  28 	 	 983 	 	 648 	 	 62 	 	 790 	 	 1096 	 	 83 
  29 	 	 417 	 	 972 	 	 42 	 	 920 	 	 1257 	 	 54 
  30 	 	 198 	 	 256 	 	 73 	 	 16 	 	 427 	 	 93 
  31 	 	 817 	 	 690 	 	 72 	 	 153 	 	 406 	 	 67 
  32 	 	 528 	 	 378 	 	 50 	 	 -110 	 	 190 	 	 73 
  33 	 	 907 	 	 897 	 	 38 	 	 696 	 	 1154 	 	 60 
  34 	 	 521 	 	 433 	 	 60 	 	 435 	 	 828 	 	 57 
  35 	 	 912 	 	 218 	 	 33 	 	 495 	 	 828 	 	 83 
  36 	 	 727 	 	 976 	 	 50 	 	 1392 	 	 1722 	 	 81 
  37 	 	 565 	 	 354 	 	 22 	 	 605 	 	 875 	 	 89 
  38 	 	 877 	 	 669 	 	 93 	 	 41 	 	 454 	 	 60 
  39 	 	 31 	 	 437 	 	 80 	 	 1289 	 	 1652 	 	 91 
  40 	 	 200 	 	 729 	 	 10 	 	 1313 	 	 1517 	 	 54 
  41 	 	 117 	 	 653 	 	 65 	 	 1161 	 	 1651 	 	 56 
  42 	 	 848 	 	 873 	 	 5 	 	 614 	 	 970 	 	 72 
  43 	 	 827 	 	 655 	 	 56 	 	 978 	 	 1388 	 	 68 
  44 	 	 450 	 	 163 	 	 75 	 	 -26 	 	 374 	 	 86 
  45 	 	 62 	 	 541 	 	 37 	 	 1309 	 	 1722 	 	 87 
  46 	 	 889 	 	 480 	 	 57 	 	 383 	 	 877 	 	 67 
  47 	 	 928 	 	 390 	 	 63 	 	 497 	 	 964 	 	 97 
  48 	 	 486 	 	 104 	 	 100 	 	 1371 	 	 1722 	 	 56 
  49 	 	 292 	 	 69 	 	 50 	 	 66 	 	 526 	 	 58 
  50 	 	 456 	 	 741 	 	 25 	 	 660 	 	 936 	 	 80 
 